\ Model idol-model
\ LP format - for model browsing. Use MPS format to capture full model detail.
\ Signature: 0xb4edb32d4484acae
Minimize
  a_1 + a_2 + a_4 + a_6 + a_7 + a_8 + a_9 + a_10 + a_11 + a_12 + a_13 + a_14
   + a_15 + a_16 + a_17 + a_18 + a_19 + a_20 + a_21 + a_22 + a_23 + a_24
   + a_25 + a_26 + a_27 + a_28 + a_29 + a_30 + a_31 + a_32 + a_33 + a_34
   + a_35 + a_36 + a_37 + a_38 + a_39 + a_40 + a_41 + a_42 + a_43 + a_44
   + a_45 + a_46 + a_47 + a_48 + a_49 + a_50 + a_51 + a_52 + a_53 + a_54
   + a_55 + a_56 + a_57 + a_58 + a_59 + a_60 + a_61 + a_62 + a_63 + a_64
   + a_65 + a_66 + a_67 + a_68 + a_69 + a_70 + a_71 + a_72 + a_73 + a_74
   + a_75 + a_76 + a_77 + a_78 + a_79 + a_80
Subject To
 Phi: y_1 + y_2 + y_4 + y_6 + y_7 + y_8 + y_9 + y_10 + y_11 + y_12 + y_13
   + y_14 + y_15 + y_16 + y_17 + y_18 + y_19 + y_20 + y_21 + y_22 + y_23
   + y_24 + y_25 + y_26 + y_27 + y_28 + y_29 + y_30 + y_31 + y_32 + y_33
   + y_34 + y_35 + y_36 + y_37 + y_38 + y_39 + y_40 + y_41 + y_42 + y_43
   + y_44 + y_45 + y_46 + y_47 + y_48 + y_49 + y_50 + y_51 + y_52 + y_53
   + y_54 + y_55 + y_56 + y_57 + y_58 + y_59 + y_60 + y_61 + y_62 + y_63
   + y_64 + y_65 + y_66 + y_67 + y_68 + y_69 + y_70 + y_71 + y_72 + y_73
   + y_74 + y_75 + y_76 + y_77 + y_78 + y_79 + y_80 <= 2
 Lambda: x_1 + x_2 + x_4 + x_6 + x_7 + x_8 + x_9 + x_10 + x_11 + x_12
   + x_13 + x_14 + x_15 + x_16 + x_17 + x_18 + x_19 + x_20 + x_21 + x_22
   + x_23 + x_24 + x_25 + x_26 + x_27 + x_28 + x_29 + x_30 + x_31 + x_32
   + x_33 + x_34 + x_35 + x_36 + x_37 + x_38 + x_39 + x_40 + x_41 + x_42
   + x_43 + x_44 + x_45 + x_46 + x_47 + x_48 + x_49 + x_50 + x_51 + x_52
   + x_53 + x_54 + x_55 + x_56 + x_57 + x_58 + x_59 + x_60 + x_61 + x_62
   + x_63 + x_64 + x_65 + x_66 + x_67 + x_68 + x_69 + x_70 + x_71 + x_72
   + x_73 + x_74 + x_75 + x_76 + x_77 + x_78 + x_79 + x_80 <= 2
 V1: a_1 + y_1 <= 1
 V2: a_2 + y_2 <= 1
 V4: a_4 + y_4 <= 1
 V6: a_6 + y_6 <= 1
 V7: a_7 + y_7 <= 1
 V8: a_8 + y_8 <= 1
 V9: a_9 + y_9 <= 1
 V10: a_10 + y_10 <= 1
 V11: a_11 + y_11 <= 1
 V12: a_12 + y_12 <= 1
 V13: a_13 + y_13 <= 1
 V14: a_14 + y_14 <= 1
 V15: a_15 + y_15 <= 1
 V16: a_16 + y_16 <= 1
 V17: a_17 + y_17 <= 1
 V18: a_18 + y_18 <= 1
 V19: a_19 + y_19 <= 1
 V20: a_20 + y_20 <= 1
 V21: a_21 + y_21 <= 1
 V22: a_22 + y_22 <= 1
 V23: a_23 + y_23 <= 1
 V24: a_24 + y_24 <= 1
 V25: a_25 + y_25 <= 1
 V26: a_26 + y_26 <= 1
 V27: a_27 + y_27 <= 1
 V28: a_28 + y_28 <= 1
 V29: a_29 + y_29 <= 1
 V30: a_30 + y_30 <= 1
 V31: a_31 + y_31 <= 1
 V32: a_32 + y_32 <= 1
 V33: a_33 + y_33 <= 1
 V34: a_34 + y_34 <= 1
 V35: a_35 + y_35 <= 1
 V36: a_36 + y_36 <= 1
 V37: a_37 + y_37 <= 1
 V38: a_38 + y_38 <= 1
 V39: a_39 + y_39 <= 1
 V40: a_40 + y_40 <= 1
 V41: a_41 + y_41 <= 1
 V42: a_42 + y_42 <= 1
 V43: a_43 + y_43 <= 1
 V44: a_44 + y_44 <= 1
 V45: a_45 + y_45 <= 1
 V46: a_46 + y_46 <= 1
 V47: a_47 + y_47 <= 1
 V48: a_48 + y_48 <= 1
 V49: a_49 + y_49 <= 1
 V50: a_50 + y_50 <= 1
 V51: a_51 + y_51 <= 1
 V52: a_52 + y_52 <= 1
 V53: a_53 + y_53 <= 1
 V54: a_54 + y_54 <= 1
 V55: a_55 + y_55 <= 1
 V56: a_56 + y_56 <= 1
 V57: a_57 + y_57 <= 1
 V58: a_58 + y_58 <= 1
 V59: a_59 + y_59 <= 1
 V60: a_60 + y_60 <= 1
 V61: a_61 + y_61 <= 1
 V62: a_62 + y_62 <= 1
 V63: a_63 + y_63 <= 1
 V64: a_64 + y_64 <= 1
 V65: a_65 + y_65 <= 1
 V66: a_66 + y_66 <= 1
 V67: a_67 + y_67 <= 1
 V68: a_68 + y_68 <= 1
 V69: a_69 + y_69 <= 1
 V70: a_70 + y_70 <= 1
 V71: a_71 + y_71 <= 1
 V72: a_72 + y_72 <= 1
 V73: a_73 + y_73 <= 1
 V74: a_74 + y_74 <= 1
 V75: a_75 + y_75 <= 1
 V76: a_76 + y_76 <= 1
 V77: a_77 + y_77 <= 1
 V78: a_78 + y_78 <= 1
 V79: a_79 + y_79 <= 1
 V80: a_80 + y_80 <= 1
 A2-1: a_1 - a_2 - x_1 <= 0
 A1-2: - a_1 + a_2 - x_2 <= 0
 A10-7: a_7 - a_10 - x_7 <= 0
 A7-10: - a_7 + a_10 - x_10 <= 0
 A11-8: a_8 - a_11 - x_8 <= 0
 A8-11: - a_8 + a_11 - x_11 <= 0
 A13-8: a_8 - a_13 - x_8 <= 0
 A8-13: - a_8 + a_13 - x_13 <= 0
 A15-10: a_10 - a_15 - x_10 <= 0
 A10-15: - a_10 + a_15 - x_15 <= 0
 A16-9: a_9 - a_16 - x_9 <= 0
 A9-16: - a_9 + a_16 - x_16 <= 0
 A18-12: a_12 - a_18 - x_12 <= 0
 A12-18: - a_12 + a_18 - x_18 <= 0
 A19-18: a_18 - a_19 - x_18 <= 0
 A18-19: - a_18 + a_19 - x_19 <= 0
 A20-2: a_2 - a_20 - x_2 <= 0
 A2-20: - a_2 + a_20 - x_20 <= 0
 A21-15: a_15 - a_21 - x_15 <= 0
 A15-21: - a_15 + a_21 - x_21 <= 0
 A22-17: a_17 - a_22 - x_17 <= 0
 A17-22: - a_17 + a_22 - x_22 <= 0
 A23-6: a_6 - a_23 - x_6 <= 0
 A6-23: - a_6 + a_23 - x_23 <= 0
 A24-2: a_2 - a_24 - x_2 <= 0
 A2-24: - a_2 + a_24 - x_24 <= 0
 A25-8: a_8 - a_25 - x_8 <= 0
 A8-25: - a_8 + a_25 - x_25 <= 0
 A26-1: a_1 - a_26 - x_1 <= 0
 A1-26: - a_1 + a_26 - x_26 <= 0
 A27-24: a_24 - a_27 - x_24 <= 0
 A24-27: - a_24 + a_27 - x_27 <= 0
 A29-2: a_2 - a_29 - x_2 <= 0
 A2-29: - a_2 + a_29 - x_29 <= 0
 A30-9: a_9 - a_30 - x_9 <= 0
 A9-30: - a_9 + a_30 - x_30 <= 0
 A31-19: a_19 - a_31 - x_19 <= 0
 A19-31: - a_19 + a_31 - x_31 <= 0
 A32-17: a_17 - a_32 - x_17 <= 0
 A17-32: - a_17 + a_32 - x_32 <= 0
 A33-29: a_29 - a_33 - x_29 <= 0
 A29-33: - a_29 + a_33 - x_33 <= 0
 A34-8: a_8 - a_34 - x_8 <= 0
 A8-34: - a_8 + a_34 - x_34 <= 0
 A35-25: a_25 - a_35 - x_25 <= 0
 A25-35: - a_25 + a_35 - x_35 <= 0
 A36-22: a_22 - a_36 - x_22 <= 0
 A22-36: - a_22 + a_36 - x_36 <= 0
 A37-28: a_28 - a_37 - x_28 <= 0
 A28-37: - a_28 + a_37 - x_37 <= 0
 A38-15: a_15 - a_38 - x_15 <= 0
 A15-38: - a_15 + a_38 - x_38 <= 0
 A39-11: a_11 - a_39 - x_11 <= 0
 A11-39: - a_11 + a_39 - x_39 <= 0
 A40-9: a_9 - a_40 - x_9 <= 0
 A9-40: - a_9 + a_40 - x_40 <= 0
 A41-40: a_40 - a_41 - x_40 <= 0
 A40-41: - a_40 + a_41 - x_41 <= 0
 A42-34: a_34 - a_42 - x_34 <= 0
 A34-42: - a_34 + a_42 - x_42 <= 0
 A43-32: a_32 - a_43 - x_32 <= 0
 A32-43: - a_32 + a_43 - x_43 <= 0
 A44-1: a_1 - a_44 - x_1 <= 0
 A1-44: - a_1 + a_44 - x_44 <= 0
 A45-21: a_21 - a_45 - x_21 <= 0
 A21-45: - a_21 + a_45 - x_45 <= 0
 A46-15: a_15 - a_46 - x_15 <= 0
 A15-46: - a_15 + a_46 - x_46 <= 0
 A47-11: a_11 - a_47 - x_11 <= 0
 A11-47: - a_11 + a_47 - x_47 <= 0
 A49-36: a_36 - a_49 - x_36 <= 0
 A36-49: - a_36 + a_49 - x_49 <= 0
 A50-18: a_18 - a_50 - x_18 <= 0
 A18-50: - a_18 + a_50 - x_50 <= 0
 A52-17: a_17 - a_52 - x_17 <= 0
 A17-52: - a_17 + a_52 - x_52 <= 0
 A53-16: a_16 - a_53 - x_16 <= 0
 A16-53: - a_16 + a_53 - x_53 <= 0
 A54-22: a_22 - a_54 - x_22 <= 0
 A22-54: - a_22 + a_54 - x_54 <= 0
 A55-33: a_33 - a_55 - x_33 <= 0
 A33-55: - a_33 + a_55 - x_55 <= 0
 A56-41: a_41 - a_56 - x_41 <= 0
 A41-56: - a_41 + a_56 - x_56 <= 0
 A57-53: a_53 - a_57 - x_53 <= 0
 A53-57: - a_53 + a_57 - x_57 <= 0
 A58-43: a_43 - a_58 - x_43 <= 0
 A43-58: - a_43 + a_58 - x_58 <= 0
 A59-40: a_40 - a_59 - x_40 <= 0
 A40-59: - a_40 + a_59 - x_59 <= 0
 A60-18: a_18 - a_60 - x_18 <= 0
 A18-60: - a_18 + a_60 - x_60 <= 0
 A61-27: a_27 - a_61 - x_27 <= 0
 A27-61: - a_27 + a_61 - x_61 <= 0
 A63-37: a_37 - a_63 - x_37 <= 0
 A37-63: - a_37 + a_63 - x_63 <= 0
 A65-19: a_19 - a_65 - x_19 <= 0
 A19-65: - a_19 + a_65 - x_65 <= 0
 A66-58: a_58 - a_66 - x_58 <= 0
 A58-66: - a_58 + a_66 - x_66 <= 0
 A67-62: a_62 - a_67 - x_62 <= 0
 A62-67: - a_62 + a_67 - x_67 <= 0
 A68-19: a_19 - a_68 - x_19 <= 0
 A19-68: - a_19 + a_68 - x_68 <= 0
 A69-9: a_9 - a_69 - x_9 <= 0
 A9-69: - a_9 + a_69 - x_69 <= 0
 A70-62: a_62 - a_70 - x_62 <= 0
 A62-70: - a_62 + a_70 - x_70 <= 0
 A71-10: a_10 - a_71 - x_10 <= 0
 A10-71: - a_10 + a_71 - x_71 <= 0
 A73-44: a_44 - a_73 - x_44 <= 0
 A44-73: - a_44 + a_73 - x_73 <= 0
 A74-63: a_63 - a_74 - x_63 <= 0
 A63-74: - a_63 + a_74 - x_74 <= 0
 A75-62: a_62 - a_75 - x_62 <= 0
 A62-75: - a_62 + a_75 - x_75 <= 0
 A76-34: a_34 - a_76 - x_34 <= 0
 A34-76: - a_34 + a_76 - x_76 <= 0
 A77-56: a_56 - a_77 - x_56 <= 0
 A56-77: - a_56 + a_77 - x_77 <= 0
 A78-69: a_69 - a_78 - x_69 <= 0
 A69-78: - a_69 + a_78 - x_78 <= 0
 A79-71: a_71 - a_79 - x_71 <= 0
 A71-79: - a_71 + a_79 - x_79 <= 0
 A80-6: a_6 - a_80 - x_6 <= 0
 A6-80: - a_6 + a_80 - x_80 <= 0
 c_596: - a_1 - a_2 - a_4 - a_6 - a_7 - a_8 - a_9 - a_10 - a_11 - a_12
   - a_13 - a_14 - a_15 - a_16 - a_17 - a_18 - a_19 - a_20 - a_21 - a_22
   - a_23 - a_24 - a_25 - a_26 - a_27 - a_28 - a_29 - a_30 - a_31 - a_32
   - a_33 - a_34 - a_35 - a_36 - a_37 - a_38 - a_39 - a_40 - a_41 - a_42
   - a_43 - a_44 - a_45 - a_46 - a_47 - a_48 - a_49 - a_50 - a_51 - a_52
   - a_53 - a_54 - a_55 - a_56 - a_57 - a_58 - a_59 - a_60 - a_61 - a_62
   - a_63 - a_64 - a_65 - a_66 - a_67 - a_68 - a_69 - a_70 - a_71 - a_72
   - a_73 - a_74 - a_75 - a_76 - a_77 - a_78 - a_79 - a_80 <= 0
Bounds
Binaries
 a_1 a_2 a_4 a_6 a_7 a_8 a_9 a_10 a_11 a_12 a_13 a_14 a_15 a_16 a_17 a_18
 a_19 a_20 a_21 a_22 a_23 a_24 a_25 a_26 a_27 a_28 a_29 a_30 a_31 a_32 a_33
 a_34 a_35 a_36 a_37 a_38 a_39 a_40 a_41 a_42 a_43 a_44 a_45 a_46 a_47 a_48
 a_49 a_50 a_51 a_52 a_53 a_54 a_55 a_56 a_57 a_58 a_59 a_60 a_61 a_62 a_63
 a_64 a_65 a_66 a_67 a_68 a_69 a_70 a_71 a_72 a_73 a_74 a_75 a_76 a_77 a_78
 a_79 a_80 y_1 y_2 y_4 y_6 y_7 y_8 y_9 y_10 y_11 y_12 y_13 y_14 y_15 y_16
 y_17 y_18 y_19 y_20 y_21 y_22 y_23 y_24 y_25 y_26 y_27 y_28 y_29 y_30 y_31
 y_32 y_33 y_34 y_35 y_36 y_37 y_38 y_39 y_40 y_41 y_42 y_43 y_44 y_45 y_46
 y_47 y_48 y_49 y_50 y_51 y_52 y_53 y_54 y_55 y_56 y_57 y_58 y_59 y_60 y_61
 y_62 y_63 y_64 y_65 y_66 y_67 y_68 y_69 y_70 y_71 y_72 y_73 y_74 y_75 y_76
 y_77 y_78 y_79 y_80 x_1 x_2 x_4 x_6 x_7 x_8 x_9 x_10 x_11 x_12 x_13 x_14
 x_15 x_16 x_17 x_18 x_19 x_20 x_21 x_22 x_23 x_24 x_25 x_26 x_27 x_28 x_29
 x_30 x_31 x_32 x_33 x_34 x_35 x_36 x_37 x_38 x_39 x_40 x_41 x_42 x_43 x_44
 x_45 x_46 x_47 x_48 x_49 x_50 x_51 x_52 x_53 x_54 x_55 x_56 x_57 x_58 x_59
 x_60 x_61 x_62 x_63 x_64 x_65 x_66 x_67 x_68 x_69 x_70 x_71 x_72 x_73 x_74
 x_75 x_76 x_77 x_78 x_79 x_80
End
